\Problem name: compact

Minimize
OBJROW: C
Subject To
ord(0,1):  - x(0,1) + x(0,2) >= 4
ord(0,2):  x(0,0) - x(0,2) >= 6
ord(1,1):  x(1,1) - x(1,2) >= 7
ord(1,2):  x(1,0) - x(1,1) >= 10
ord(2,1):  - x(2,0) + x(2,1) >= 3
ord(2,2):  - x(2,1) + x(2,2) >= 2
triangle2(0,1,0):  y(0,1,0) + y(1,0,0) = 1
triangle2(0,1,1):  y(0,1,1) + y(1,0,1) = 1
triangle2(0,1,2):  y(0,1,2) + y(1,0,2) = 1
triangle2(0,2,0):  y(0,2,0) + y(2,0,0) = 1
triangle2(0,2,1):  y(0,2,1) + y(2,0,1) = 1
triangle2(0,2,2):  y(0,2,2) + y(2,0,2) = 1
triangle2(1,2,0):  y(1,2,0) + y(2,1,0) = 1
triangle2(1,2,1):  y(1,2,1) + y(2,1,1) = 1
triangle2(1,2,2):  y(1,2,2) + y(2,1,2) = 1
MCLinV(0,1,0):  x(0,0) - v(0,1,0) - x(1,0) = 8
MCLinV(1,0,0):  - x(0,0) - v(1,0,0) + x(1,0) = 6
MCLin1(0,1,0):  u(0,1,0) >= -0
MCLin2(0,1,0):  -45 y(1,0,0) - u(0,1,0) <= -0
MCLin3(0,1,0):  24 y(1,0,0) + v(0,1,0) - u(0,1,0) <= 24
MCLin4(0,1,0):  24 y(1,0,0) - u(0,1,0) >= -0
MCLin5(0,1,0):  -45 y(1,0,0) + v(0,1,0) - u(0,1,0) >= -45
MCLin6(1,0,0):  u(1,0,0) >= -0
MCLin7(1,0,0):  -38 y(0,1,0) - u(1,0,0) <= -0
MCLin8(1,0,0):  31 y(0,1,0) + v(1,0,0) - u(1,0,0) <= 31
MCLin9(1,0,0):  31 y(0,1,0) - u(1,0,0) >= -0
MCLin10(1,0,0):  -38 y(0,1,0) + v(1,0,0) - u(1,0,0) >= -38
MCLinV(0,1,1):  x(0,1) - v(0,1,1) - x(1,1) = 10
MCLinV(1,0,1):  - x(0,1) - v(1,0,1) + x(1,1) = 4
MCLin1(0,1,1):  u(0,1,1) >= -0
MCLin2(0,1,1):  -47 y(1,0,1) - u(0,1,1) <= -0
MCLin3(0,1,1):  22 y(1,0,1) + v(0,1,1) - u(0,1,1) <= 22
MCLin4(0,1,1):  22 y(1,0,1) - u(0,1,1) >= -0
MCLin5(0,1,1):  -47 y(1,0,1) + v(0,1,1) - u(0,1,1) >= -47
MCLin6(1,0,1):  u(1,0,1) >= -0
MCLin7(1,0,1):  -36 y(0,1,1) - u(1,0,1) <= -0
MCLin8(1,0,1):  33 y(0,1,1) + v(1,0,1) - u(1,0,1) <= 33
MCLin9(1,0,1):  33 y(0,1,1) - u(1,0,1) >= -0
MCLin10(1,0,1):  -36 y(0,1,1) + v(1,0,1) - u(1,0,1) >= -36
MCLinV(0,1,2):  x(0,2) - v(0,1,2) - x(1,2) = 7
MCLinV(1,0,2):  - x(0,2) - v(1,0,2) + x(1,2) = 6
MCLin1(0,1,2):  u(0,1,2) >= -0
MCLin2(0,1,2):  -33 y(1,0,2) - u(0,1,2) <= -0
MCLin3(0,1,2):  36 y(1,0,2) + v(0,1,2) - u(0,1,2) <= 36
MCLin4(0,1,2):  36 y(1,0,2) - u(0,1,2) >= -0
MCLin5(0,1,2):  -33 y(1,0,2) + v(0,1,2) - u(0,1,2) >= -33
MCLin6(1,0,2):  u(1,0,2) >= -0
MCLin7(1,0,2):  -49 y(0,1,2) - u(1,0,2) <= -0
MCLin8(1,0,2):  20 y(0,1,2) + v(1,0,2) - u(1,0,2) <= 20
MCLin9(1,0,2):  20 y(0,1,2) - u(1,0,2) >= -0
MCLin10(1,0,2):  -49 y(0,1,2) + v(1,0,2) - u(1,0,2) >= -49
MCLinV(0,2,0):  x(0,0) - v(0,2,0) - x(2,0) = 3
MCLinV(2,0,0):  - x(0,0) - v(2,0,0) + x(2,0) = 6
MCLin1(0,2,0):  u(0,2,0) >= -0
MCLin2(0,2,0):  -34 y(2,0,0) - u(0,2,0) <= -0
MCLin3(0,2,0):  46 y(2,0,0) + v(0,2,0) - u(0,2,0) <= 46
MCLin4(0,2,0):  46 y(2,0,0) - u(0,2,0) >= -0
MCLin5(0,2,0):  -34 y(2,0,0) + v(0,2,0) - u(0,2,0) >= -34
MCLin6(2,0,0):  u(2,0,0) >= -0
MCLin7(2,0,0):  -55 y(0,2,0) - u(2,0,0) <= -0
MCLin8(2,0,0):  25 y(0,2,0) + v(2,0,0) - u(2,0,0) <= 25
MCLin9(2,0,0):  25 y(0,2,0) - u(2,0,0) >= -0
MCLin10(2,0,0):  -55 y(0,2,0) + v(2,0,0) - u(2,0,0) >= -55
MCLinV(0,2,1):  x(0,1) - v(0,2,1) - x(2,1) = 2
MCLinV(2,0,1):  - x(0,1) - v(2,0,1) + x(2,1) = 4
MCLin1(0,2,1):  u(0,2,1) >= -0
MCLin2(0,2,1):  -46 y(2,0,1) - u(0,2,1) <= -0
MCLin3(0,2,1):  34 y(2,0,1) + v(0,2,1) - u(0,2,1) <= 34
MCLin4(0,2,1):  34 y(2,0,1) - u(0,2,1) >= -0
MCLin5(0,2,1):  -46 y(2,0,1) + v(0,2,1) - u(0,2,1) >= -46
MCLin6(2,0,1):  u(2,0,1) >= -0
MCLin7(2,0,1):  -40 y(0,2,1) - u(2,0,1) <= -0
MCLin8(2,0,1):  40 y(0,2,1) + v(2,0,1) - u(2,0,1) <= 40
MCLin9(2,0,1):  40 y(0,2,1) - u(2,0,1) >= -0
MCLin10(2,0,1):  -40 y(0,2,1) + v(2,0,1) - u(2,0,1) >= -40
MCLinV(0,2,2):  x(0,2) - v(0,2,2) - x(2,2) = 9
MCLinV(2,0,2):  - x(0,2) - v(2,0,2) + x(2,2) = 6
MCLin1(0,2,2):  u(0,2,2) >= -0
MCLin2(0,2,2):  -51 y(2,0,2) - u(0,2,2) <= -0
MCLin3(0,2,2):  29 y(2,0,2) + v(0,2,2) - u(0,2,2) <= 29
MCLin4(0,2,2):  29 y(2,0,2) - u(0,2,2) >= -0
MCLin5(0,2,2):  -51 y(2,0,2) + v(0,2,2) - u(0,2,2) >= -51
MCLin6(2,0,2):  u(2,0,2) >= -0
MCLin7(2,0,2):  -44 y(0,2,2) - u(2,0,2) <= -0
MCLin8(2,0,2):  36 y(0,2,2) + v(2,0,2) - u(2,0,2) <= 36
MCLin9(2,0,2):  36 y(0,2,2) - u(2,0,2) >= -0
MCLin10(2,0,2):  -44 y(0,2,2) + v(2,0,2) - u(2,0,2) >= -44
MCLinV(1,2,0):  x(1,0) - v(1,2,0) - x(2,0) = 3
MCLinV(2,1,0):  - x(1,0) - v(2,1,0) + x(2,0) = 8
MCLin1(1,2,0):  u(1,2,0) >= -0
MCLin2(1,2,0):  -27 y(2,1,0) - u(1,2,0) <= -0
MCLin3(1,2,0):  44 y(2,1,0) + v(1,2,0) - u(1,2,0) <= 44
MCLin4(1,2,0):  44 y(2,1,0) - u(1,2,0) >= -0
MCLin5(1,2,0):  -27 y(2,1,0) + v(1,2,0) - u(1,2,0) >= -27
MCLin6(2,1,0):  u(2,1,0) >= -0
MCLin7(2,1,0):  -55 y(1,2,0) - u(2,1,0) <= -0
MCLin8(2,1,0):  16 y(1,2,0) + v(2,1,0) - u(2,1,0) <= 16
MCLin9(2,1,0):  16 y(1,2,0) - u(2,1,0) >= -0
MCLin10(2,1,0):  -55 y(1,2,0) + v(2,1,0) - u(2,1,0) >= -55
MCLinV(1,2,1):  x(1,1) - v(1,2,1) - x(2,1) = 2
MCLinV(2,1,1):  - x(1,1) - v(2,1,1) + x(2,1) = 10
MCLin1(1,2,1):  u(1,2,1) >= -0
MCLin2(1,2,1):  -39 y(2,1,1) - u(1,2,1) <= -0
MCLin3(1,2,1):  32 y(2,1,1) + v(1,2,1) - u(1,2,1) <= 32
MCLin4(1,2,1):  32 y(2,1,1) - u(1,2,1) >= -0
MCLin5(1,2,1):  -39 y(2,1,1) + v(1,2,1) - u(1,2,1) >= -39
MCLin6(2,1,1):  u(2,1,1) >= -0
MCLin7(2,1,1):  -44 y(1,2,1) - u(2,1,1) <= -0
MCLin8(2,1,1):  27 y(1,2,1) + v(2,1,1) - u(2,1,1) <= 27
MCLin9(2,1,1):  27 y(1,2,1) - u(2,1,1) >= -0
MCLin10(2,1,1):  -44 y(1,2,1) + v(2,1,1) - u(2,1,1) >= -44
MCLinV(1,2,2):  x(1,2) - v(1,2,2) - x(2,2) = 9
MCLinV(2,1,2):  - x(1,2) - v(2,1,2) + x(2,2) = 7
MCLin1(1,2,2):  u(1,2,2) >= -0
MCLin2(1,2,2):  -55 y(2,1,2) - u(1,2,2) <= -0
MCLin3(1,2,2):  16 y(2,1,2) + v(1,2,2) - u(1,2,2) <= 16
MCLin4(1,2,2):  16 y(2,1,2) - u(1,2,2) >= -0
MCLin5(1,2,2):  -55 y(2,1,2) + v(1,2,2) - u(1,2,2) >= -55
MCLin6(2,1,2):  u(2,1,2) >= -0
MCLin7(2,1,2):  -32 y(1,2,2) - u(2,1,2) <= -0
MCLin8(2,1,2):  39 y(1,2,2) + v(2,1,2) - u(2,1,2) <= 39
MCLin9(2,1,2):  39 y(1,2,2) - u(2,1,2) >= -0
MCLin10(2,1,2):  -32 y(1,2,2) + v(2,1,2) - u(2,1,2) >= -32
makespan(0):  C - x(0,0) >= 6
makespan(1):  C - x(1,0) >= 8
makespan(2):  C - x(2,2) >= 9
basic_cuts1(02,1):  4 x(0,1) + 2 x(2,1) >= 8
cut_clique_1(02,1):  0.05000 x(0,1) + 0.25000 x(2,1) >= 1
basic_cuts1(01,2):  6 x(0,2) + 7 x(1,2) >= 42
basic_cuts1(02,2):  6 x(0,2) + 9 x(2,2) >= 114
basic_cuts1(12,2):  7 x(1,2) + 9 x(2,2) >= 63
basic_cuts1(012,2):  6 x(0,2) + 7 x(1,2) + 9 x(2,2) >= 159
cut_clique_1(01,2):  0.14286 x(0,2) + 0.04286 x(1,2) >= 1
cut_clique_1(02,2):  0.04167 x(0,2) + 0.08333 x(2,2) >= 1
cut_clique_1(12,2):  0.02041 x(1,2) + 0.14286 x(2,2) >= 1
cut_clique_1(012,2):  0.03774 x(0,2) + 0.01490 x(1,2) + 0.05660 x(2,2) >= 1
basic_cuts_reverse2(01,0):  14 C -6 x(0,0) -8 x(1,0) >= 148
basic_cuts_reverse2(012,0):  17 C -6 x(0,0) -8 x(1,0) -3 x(2,0) >= 199
basic_cuts_reverse2(01,1):  14 C -4 x(0,1) -10 x(1,1) >= 268
basic_cuts_reverse2(012,1):  16 C -4 x(0,1) -10 x(1,1) -2 x(2,1) >= 316
cut_clique_2(012,1):  0.00909 x(0,1) + 0.05455 x(1,1) + 0.15455 x(2,1) >= 1
Bounds
 0 <= C <= 55
 10 <= x(0,0) <= 49
 0 <= y(0,1,0) <= 1
 0 <= y(1,0,0) <= 1
 -45 <= v(0,1,0) <= 24
 -38 <= v(1,0,0) <= 31
 -550 <= u(0,1,0)
 -550 <= u(1,0,0)
 0 <= y(0,2,0) <= 1
 0 <= y(2,0,0) <= 1
 -34 <= v(0,2,0) <= 46
 -55 <= v(2,0,0) <= 25
 -550 <= u(0,2,0)
 -550 <= u(2,0,0)
 17 <= x(1,0) <= 47
 0 <= y(1,2,0) <= 1
 0 <= y(2,1,0) <= 1
 -27 <= v(1,2,0) <= 44
 -55 <= v(2,1,0) <= 16
 -550 <= u(1,2,0)
 -550 <= u(2,1,0)
 0 <= x(2,0) <= 41
 0 <= x(0,1) <= 39
 0 <= y(0,1,1) <= 1
 0 <= y(1,0,1) <= 1
 -47 <= v(0,1,1) <= 22
 -36 <= v(1,0,1) <= 33
 -550 <= u(0,1,1)
 -550 <= u(1,0,1)
 0 <= y(0,2,1) <= 1
 0 <= y(2,0,1) <= 1
 -46 <= v(0,2,1) <= 34
 -40 <= v(2,0,1) <= 40
 -550 <= u(0,2,1)
 -550 <= u(2,0,1)
 7 <= x(1,1) <= 37
 0 <= y(1,2,1) <= 1
 0 <= y(2,1,1) <= 1
 -39 <= v(1,2,1) <= 32
 -44 <= v(2,1,1) <= 27
 -550 <= u(1,2,1)
 -550 <= u(2,1,1)
 3 <= x(2,1) <= 44
 4 <= x(0,2) <= 43
 0 <= y(0,1,2) <= 1
 0 <= y(1,0,2) <= 1
 -33 <= v(0,1,2) <= 36
 -49 <= v(1,0,2) <= 20
 -550 <= u(0,1,2)
 -550 <= u(1,0,2)
 0 <= y(0,2,2) <= 1
 0 <= y(2,0,2) <= 1
 -51 <= v(0,2,2) <= 29
 -44 <= v(2,0,2) <= 36
 -550 <= u(0,2,2)
 -550 <= u(2,0,2)
 0 <= x(1,2) <= 30
 0 <= y(1,2,2) <= 1
 0 <= y(2,1,2) <= 1
 -55 <= v(1,2,2) <= 16
 -32 <= v(2,1,2) <= 39
 -550 <= u(1,2,2)
 -550 <= u(2,1,2)
 5 <= x(2,2) <= 46
Integers
C x(0,0) y(0,1,0) y(1,0,0) v(0,1,0) v(1,0,0) u(0,1,0) u(1,0,0) y(0,2,0) y(2,0,0) 
v(0,2,0) v(2,0,0) u(0,2,0) u(2,0,0) x(1,0) y(1,2,0) y(2,1,0) v(1,2,0) v(2,1,0) u(1,2,0) 
u(2,1,0) x(2,0) x(0,1) y(0,1,1) y(1,0,1) v(0,1,1) v(1,0,1) u(0,1,1) u(1,0,1) y(0,2,1) 
y(2,0,1) v(0,2,1) v(2,0,1) u(0,2,1) u(2,0,1) x(1,1) y(1,2,1) y(2,1,1) v(1,2,1) v(2,1,1) 
u(1,2,1) u(2,1,1) x(2,1) x(0,2) y(0,1,2) y(1,0,2) v(0,1,2) v(1,0,2) u(0,1,2) u(1,0,2) 
y(0,2,2) y(2,0,2) v(0,2,2) v(2,0,2) u(0,2,2) u(2,0,2) x(1,2) y(1,2,2) y(2,1,2) v(1,2,2) 
v(2,1,2) u(1,2,2) u(2,1,2) x(2,2) 
End
